(declare-const a Real)
(declare-const b Real)
(declare-const c Real)
(assert (= (* a b c) 1))
(assert (> a 0))
(assert (> b 0))
(assert (> c 0))
(assert (not (<= (+ (* (/ -1 37476528) (pow (+ (* 16268376 (pow a 2)) (* 21208152 (pow b 2))) 2)) (* -42467328 (pow a (pow 3 -1)) (pow b (/ 11 3))) (* -21233664 (pow a (/ 10 3)) (pow b (/ 2 3))) (* 2497392 (pow a 2) (pow b 2)) (* 23166624 b (pow a 3)) (* 75513504 a (pow b 3))) 0)))
(check-sat)
(get-model)
(exit)